300
50 50
1 35 908
2 35 912
3 35 720
4 35 476
5 35 421
6 34 250
7 34 789
8 34 809
9 34 375
10 34 962
11 34 100
12 34 878
13 34 453
14 34 245
15 34 989
16 33 173
17 33 449
18 33 573
19 33 726
20 33 353
21 33 94
22 33 719
23 32 331
24 32 774
25 32 907
26 32 57
27 32 437
28 32 215
29 32 381
30 32 606
31 32 115
32 31 576
33 31 308
34 31 289
35 31 58
36 31 530
37 31 310
38 31 843
39 31 236
40 31 261
41 31 241
42 31 101
43 31 14
44 30 791
45 30 7
46 30 796
47 30 711
48 30 322
49 30 456
50 30 615
51 30 466
52 30 739
53 30 740
54 30 763
55 29 874
56 29 899
57 29 861
58 29 823
59 29 79
60 29 970
61 29 628
62 28 242
63 28 437
64 28 474
65 28 665
66 28 939
67 28 917
68 28 701
69 28 243
70 28 184
71 28 940
72 28 155
73 27 805
74 27 570
75 27 626
76 27 519
77 27 460
78 27 328
79 27 418
80 26 741
81 26 59
82 26 319
83 26 358
84 26 258
85 26 541
86 26 892
87 26 34
88 26 891
89 25 576
90 25 989
91 25 325
92 25 36
93 25 506
94 25 378
95 25 972
96 24 4
97 24 540
98 24 156
99 24 132
100 24 764
101 24 483
102 24 576
103 24 835
104 24 535
105 24 856
106 24 496
107 24 716
108 24 569
109 24 527
110 23 981
111 23 492
112 23 404
113 23 507
114 23 917
115 23 881
116 23 991
117 22 895
118 22 285
119 22 35
120 22 223
121 22 594
122 22 180
123 22 287
124 22 236
125 22 899
126 22 797
127 22 561
128 21 36
129 21 748
130 21 31
131 21 876
132 21 328
133 21 348
134 21 244
135 21 358
136 21 772
137 21 885
138 21 329
139 20 607
140 20 352
141 20 416
142 20 689
143 20 627
144 20 485
145 20 129
146 20 715
147 20 238
148 20 434
149 20 447
150 20 724
151 20 138
152 20 667
153 20 769
154 20 919
155 20 146
156 20 731
157 19 219
158 19 444
159 19 756
160 19 463
161 19 73
162 19 720
163 19 926
164 19 169
165 19 326
166 18 370
167 18 278
168 18 736
169 18 809
170 18 54
171 18 451
172 18 435
173 18 324
174 18 409
175 18 590
176 18 777
177 18 883
178 18 416
179 18 83
180 17 789
181 17 576
182 17 158
183 17 162
184 17 128
185 17 172
186 17 271
187 17 349
188 17 736
189 17 637
190 17 228
191 16 764
192 16 862
193 16 875
194 16 149
195 16 898
196 16 879
197 15 710
198 15 157
199 15 520
200 15 560
201 15 575
202 15 527
203 15 558
204 15 406
205 15 925
206 15 785
207 15 558
208 15 347
209 14 862
210 14 949
211 14 814
212 14 839
213 14 213
214 13 839
215 13 751
216 13 473
217 13 190
218 13 243
219 12 875
220 12 539
221 12 206
222 12 349
223 12 396
224 12 703
225 12 229
226 12 652
227 11 584
228 11 224
229 11 714
230 11 106
231 11 993
232 11 1000
233 11 18
234 11 975
235 11 407
236 10 93
237 10 751
238 10 738
239 10 517
240 10 483
241 10 853
242 10 428
243 10 820
244 10 847
245 10 76
246 10 989
247 10 399
248 10 76
249 10 881
250 9 329
251 9 552
252 9 348
253 9 429
254 9 199
255 9 913
256 9 771
257 9 393
258 9 82
259 8 920
260 8 958
261 8 700
262 8 514
263 8 160
264 8 297
265 8 963
266 8 321
267 7 335
268 7 757
269 7 756
270 7 553
271 7 243
272 7 546
273 7 398
274 7 955
275 7 524
276 6 559
277 6 772
278 6 626
279 6 866
280 6 375
281 6 818
282 6 231
283 6 731
284 6 450
285 6 652
286 6 216
287 5 132
288 5 862
289 5 499
290 5 344
291 5 295
292 5 444
293 5 73
294 5 812
295 5 803
296 5 671
297 5 43
298 5 457
299 5 386
300 5 857
